p ds 992 1921
1 2
1 32
2 3
2 33
3 4
3 34
4 5
4 35
5 36
5 6
6 7
6 37
7 38
7 8
8 9
8 39
9 10
9 40
10 11
10 41
11 12
11 42
12 13
12 43
13 44
13 14
14 15
14 45
15 46
15 16
16 17
16 47
17 18
17 48
18 19
18 49
19 20
19 50
20 21
20 51
21 52
21 22
22 23
22 53
23 54
23 24
24 25
24 55
25 26
25 56
26 27
26 57
27 28
27 58
28 29
28 59
29 60
29 30
30 31
30 61
31 62
32 33
32 63
33 34
33 64
34 65
34 35
35 66
35 36
36 67
36 37
37 38
37 68
38 39
38 69
39 40
39 70
40 71
40 41
41 42
41 72
42 73
42 43
43 74
43 44
44 75
44 45
45 46
45 76
46 47
46 77
47 48
47 78
48 79
48 49
49 50
49 80
50 81
50 51
51 82
51 52
52 83
52 53
53 54
53 84
54 55
54 85
55 56
55 86
56 87
56 57
57 58
57 88
58 89
58 59
59 90
59 60
60 91
60 61
61 62
61 92
62 93
63 94
63 64
64 95
64 65
65 66
65 96
66 97
66 67
67 68
67 98
68 99
68 69
69 100
69 70
70 101
70 71
71 102
71 72
72 103
72 73
73 74
73 104
74 105
74 75
75 76
75 106
76 107
76 77
77 108
77 78
78 109
78 79
79 110
79 80
80 111
80 81
81 82
81 112
82 113
82 83
83 84
83 114
84 115
84 85
85 116
85 86
86 117
86 87
87 118
87 88
88 119
88 89
89 90
89 120
90 121
90 91
91 92
91 122
92 123
92 93
93 124
94 95
94 125
95 126
95 96
96 127
96 97
97 128
97 98
98 129
98 99
99 100
99 130
100 101
100 131
101 102
101 132
102 133
102 103
103 104
103 134
104 135
104 105
105 136
105 106
106 137
106 107
107 108
107 138
108 109
108 139
109 110
109 140
110 141
110 111
111 112
111 142
112 143
112 113
113 144
113 114
114 145
114 115
115 116
115 146
116 117
116 147
117 118
117 148
118 149
118 119
119 120
119 150
120 151
120 121
121 152
121 122
122 153
122 123
123 124
123 154
124 155
125 126
125 156
126 157
126 127
127 128
127 158
128 159
128 129
129 160
129 130
130 161
130 131
131 162
131 132
132 163
132 133
133 164
133 134
134 165
134 135
135 136
135 166
136 167
136 137
137 138
137 168
138 169
138 139
139 170
139 140
140 171
140 141
141 172
141 142
142 173
142 143
143 144
143 174
144 175
144 145
145 146
145 176
146 177
146 147
147 178
147 148
148 179
148 149
149 180
149 150
150 181
150 151
151 152
151 182
152 183
152 153
153 154
153 184
154 185
154 155
155 186
156 157
156 187
157 188
157 158
158 189
158 159
159 160
159 190
160 191
160 161
161 162
161 192
162 163
162 193
163 194
163 164
164 195
164 165
165 196
165 166
166 197
166 167
167 198
167 168
168 199
168 169
169 200
169 170
170 171
170 201
171 202
171 172
172 203
172 173
173 204
173 174
174 205
174 175
175 206
175 176
176 207
176 177
177 208
177 178
178 179
178 209
179 210
179 180
180 211
180 181
181 212
181 182
182 213
182 183
183 214
183 184
184 215
184 185
185 216
185 186
186 217
187 218
187 188
188 219
188 189
189 220
189 190
190 221
190 191
191 222
191 192
192 223
192 193
193 224
193 194
194 195
194 225
195 226
195 196
196 227
196 197
197 198
197 228
198 229
198 199
199 230
199 200
200 231
200 201
201 232
201 202
202 203
202 233
203 234
203 204
204 235
204 205
205 206
205 236
206 237
206 207
207 238
207 208
208 239
208 209
209 240
209 210
210 211
210 241
211 242
211 212
212 243
212 213
213 214
213 244
214 245
214 215
215 246
215 216
216 247
216 217
217 248
218 249
218 219
219 250
219 220
220 251
220 221
221 222
221 252
222 253
222 223
223 254
223 224
224 225
224 255
225 256
225 226
226 257
226 227
227 258
227 228
228 259
228 229
229 260
229 230
230 261
230 231
231 262
231 232
232 233
232 263
233 264
233 234
234 265
234 235
235 266
235 236
236 267
236 237
237 268
237 238
238 269
238 239
239 270
239 240
240 241
240 271
241 272
241 242
242 273
242 243
243 274
243 244
244 275
244 245
245 276
245 246
246 277
246 247
247 278
247 248
248 279
249 250
249 280
250 281
250 251
251 282
251 252
252 283
252 253
253 284
253 254
254 285
254 255
255 286
255 256
256 257
256 287
257 288
257 258
258 289
258 259
259 260
259 290
260 291
260 261
261 292
261 262
262 293
262 263
263 294
263 264
264 265
264 295
265 296
265 266
266 297
266 267
267 268
267 298
268 299
268 269
269 300
269 270
270 301
270 271
271 302
271 272
272 273
272 303
273 304
273 274
274 305
274 275
275 276
275 306
276 307
276 277
277 308
277 278
278 309
278 279
279 310
280 281
280 311
281 312
281 282
282 313
282 283
283 284
283 314
284 315
284 285
285 316
285 286
286 317
286 287
287 318
287 288
288 319
288 289
289 290
289 320
290 321
290 291
291 322
291 292
292 323
292 293
293 294
293 324
294 295
294 325
295 296
295 326
296 327
296 297
297 298
297 328
298 329
298 299
299 330
299 300
300 331
300 301
301 302
301 332
302 303
302 333
303 304
303 334
304 335
304 305
305 306
305 336
306 337
306 307
307 338
307 308
308 339
308 309
309 310
309 340
310 341
311 342
311 312
312 343
312 313
313 314
313 344
314 345
314 315
315 346
315 316
316 347
316 317
317 318
317 348
318 319
318 349
319 320
319 350
320 351
320 321
321 322
321 352
322 353
322 323
323 324
323 354
324 355
324 325
325 356
325 326
326 357
326 327
327 358
327 328
328 359
328 329
329 330
329 360
330 361
330 331
331 332
331 362
332 363
332 333
333 364
333 334
334 365
334 335
335 366
335 336
336 367
336 337
337 338
337 368
338 369
338 339
339 340
339 370
340 371
340 341
341 372
342 343
342 373
343 374
343 344
344 375
344 345
345 346
345 376
346 377
346 347
347 348
347 378
348 379
348 349
349 380
349 350
350 381
350 351
351 382
351 352
352 383
352 353
353 384
353 354
354 385
354 355
355 356
355 386
356 357
356 387
357 358
357 388
358 389
358 359
359 360
359 390
360 391
360 361
361 392
361 362
362 393
362 363
363 364
363 394
364 365
364 395
365 366
365 396
366 397
366 367
367 368
367 398
368 399
368 369
369 400
369 370
370 401
370 371
371 372
371 402
372 403
373 374
373 404
374 405
374 375
375 376
375 406
376 407
376 377
377 408
377 378
378 409
378 379
379 380
379 410
380 381
380 411
381 382
381 412
382 413
382 383
383 384
383 414
384 415
384 385
385 416
385 386
386 417
386 387
387 418
387 388
388 419
388 389
389 420
389 390
390 421
390 391
391 392
391 422
392 423
392 393
393 394
393 424
394 425
394 395
395 426
395 396
396 427
396 397
397 428
397 398
398 429
398 399
399 400
399 430
400 431
400 401
401 402
401 432
402 433
402 403
403 434
404 405
404 435
405 436
405 406
406 437
406 407
407 408
407 438
408 439
408 409
409 410
409 440
410 441
410 411
411 442
411 412
412 443
412 413
413 444
413 414
414 445
414 415
415 416
415 446
416 447
416 417
417 418
417 448
418 419
418 449
419 450
419 420
420 451
420 421
421 452
421 422
422 453
422 423
423 454
423 424
424 455
424 425
425 456
425 426
426 427
426 457
427 458
427 428
428 459
428 429
429 460
429 430
430 461
430 431
431 462
431 432
432 463
432 433
433 464
433 434
434 465
435 466
435 436
436 467
436 437
437 468
437 438
438 469
438 439
439 470
439 440
440 471
440 441
441 472
441 442
442 443
442 473
443 474
443 444
444 475
444 445
445 476
445 446
446 477
446 447
447 478
447 448
448 479
448 449
449 480
449 450
450 451
450 481
451 482
451 452
452 483
452 453
453 454
453 484
454 485
454 455
455 486
455 456
456 487
456 457
457 488
457 458
458 459
458 489
459 490
459 460
460 491
460 461
461 462
461 492
462 493
462 463
463 494
463 464
464 495
464 465
465 496
466 497
466 467
467 498
467 468
468 499
468 469
469 470
469 500
470 501
470 471
471 502
471 472
472 503
472 473
473 504
473 474
474 475
474 505
475 506
475 476
476 507
476 477
477 478
477 508
478 509
478 479
479 510
479 480
480 481
480 511
481 512
481 482
482 513
482 483
483 514
483 484
484 515
484 485
485 516
485 486
486 517
486 487
487 518
487 488
488 489
488 519
489 520
489 490
490 521
490 491
491 522
491 492
492 523
492 493
493 524
493 494
494 525
494 495
495 526
495 496
496 527
497 498
497 528
498 529
498 499
499 530
499 500
500 531
500 501
501 532
501 502
502 533
502 503
503 534
503 504
504 505
504 535
505 536
505 506
506 537
506 507
507 538
507 508
508 539
508 509
509 540
509 510
510 541
510 511
511 542
511 512
512 513
512 543
513 544
513 514
514 545
514 515
515 516
515 546
516 547
516 517
517 548
517 518
518 549
518 519
519 550
519 520
520 521
520 551
521 552
521 522
522 553
522 523
523 524
523 554
524 555
524 525
525 556
525 526
526 557
526 527
527 558
528 529
528 559
529 560
529 530
530 561
530 531
531 532
531 562
532 563
532 533
533 564
533 534
534 565
534 535
535 566
535 536
536 537
536 567
537 568
537 538
538 569
538 539
539 540
539 570
540 571
540 541
541 572
541 542
542 573
542 543
543 574
543 544
544 575
544 545
545 546
545 576
546 577
546 547
547 578
547 548
548 579
548 549
549 550
549 580
550 551
550 581
551 552
551 582
552 583
552 553
553 554
553 584
554 585
554 555
555 586
555 556
556 587
556 557
557 558
557 588
558 589
559 590
559 560
560 591
560 561
561 562
561 592
562 593
562 563
563 594
563 564
564 595
564 565
565 566
565 596
566 567
566 597
567 568
567 598
568 599
568 569
569 570
569 600
570 601
570 571
571 602
571 572
572 603
572 573
573 574
573 604
574 575
574 605
575 576
575 606
576 607
576 577
577 578
577 608
578 609
578 579
579 580
579 610
580 611
580 581
581 612
581 582
582 613
582 583
583 614
583 584
584 615
584 585
585 586
585 616
586 617
586 587
587 588
587 618
588 619
588 589
589 620
590 591
590 621
591 622
591 592
592 623
592 593
593 594
593 624
594 625
594 595
595 596
595 626
596 627
596 597
597 628
597 598
598 629
598 599
599 630
599 600
600 631
600 601
601 602
601 632
602 633
602 603
603 604
603 634
604 635
604 605
605 636
605 606
606 637
606 607
607 638
607 608
608 639
608 609
609 640
609 610
610 641
610 611
611 612
611 642
612 613
612 643
613 614
613 644
614 645
614 615
615 616
615 646
616 647
616 617
617 648
617 618
618 649
618 619
619 620
619 650
620 651
621 622
621 652
622 653
622 623
623 624
623 654
624 655
624 625
625 656
625 626
626 657
626 627
627 628
627 658
628 629
628 659
629 630
629 660
630 661
630 631
631 632
631 662
632 663
632 633
633 664
633 634
634 665
634 635
635 636
635 666
636 637
636 667
637 638
637 668
638 669
638 639
639 640
639 670
640 671
640 641
641 672
641 642
642 673
642 643
643 674
643 644
644 675
644 645
645 676
645 646
646 677
646 647
647 648
647 678
648 679
648 649
649 650
649 680
650 681
650 651
651 682
652 653
652 683
653 684
653 654
654 685
654 655
655 656
655 686
656 687
656 657
657 658
657 688
658 689
658 659
659 690
659 660
660 691
660 661
661 692
661 662
662 693
662 663
663 664
663 694
664 695
664 665
665 666
665 696
666 697
666 667
667 698
667 668
668 699
668 669
669 700
669 670
670 701
670 671
671 672
671 702
672 703
672 673
673 674
673 704
674 675
674 705
675 706
675 676
676 707
676 677
677 708
677 678
678 709
678 679
679 710
679 680
680 711
680 681
681 712
681 682
682 713
683 714
683 684
684 715
684 685
685 716
685 686
686 717
686 687
687 718
687 688
688 719
688 689
689 720
689 690
690 691
690 721
691 722
691 692
692 723
692 693
693 724
693 694
694 725
694 695
695 726
695 696
696 727
696 697
697 728
697 698
698 699
698 729
699 730
699 700
700 731
700 701
701 732
701 702
702 733
702 703
703 734
703 704
704 735
704 705
705 736
705 706
706 707
706 737
707 738
707 708
708 739
708 709
709 710
709 740
710 741
710 711
711 742
711 712
712 743
712 713
713 744
714 745
714 715
715 746
715 716
716 747
716 717
717 718
717 748
718 749
718 719
719 750
719 720
720 751
720 721
721 752
721 722
722 723
722 753
723 754
723 724
724 755
724 725
725 726
725 756
726 757
726 727
727 758
727 728
728 759
728 729
729 760
729 730
730 731
730 761
731 762
731 732
732 763
732 733
733 734
733 764
734 765
734 735
735 766
735 736
736 737
736 767
737 768
737 738
738 769
738 739
739 770
739 740
740 771
740 741
741 772
741 742
742 773
742 743
743 774
743 744
744 775
745 746
745 776
746 777
746 747
747 778
747 748
748 779
748 749
749 780
749 750
750 781
750 751
751 782
751 752
752 753
752 783
753 784
753 754
754 785
754 755
755 786
755 756
756 787
756 757
757 788
757 758
758 789
758 759
759 790
759 760
760 761
760 791
761 792
761 762
762 793
762 763
763 794
763 764
764 795
764 765
765 796
765 766
766 797
766 767
767 798
767 768
768 769
768 799
769 800
769 770
770 801
770 771
771 772
771 802
772 803
772 773
773 804
773 774
774 805
774 775
775 806
776 777
776 807
777 808
777 778
778 809
778 779
779 780
779 810
780 811
780 781
781 812
781 782
782 813
782 783
783 814
783 784
784 785
784 815
785 816
785 786
786 817
786 787
787 788
787 818
788 819
788 789
789 820
789 790
790 821
790 791
791 822
791 792
792 793
792 823
793 824
793 794
794 825
794 795
795 796
795 826
796 827
796 797
797 828
797 798
798 829
798 799
799 830
799 800
800 831
800 801
801 802
801 832
802 833
802 803
803 834
803 804
804 835
804 805
805 806
805 836
806 837
807 838
807 808
808 839
808 809
809 810
809 840
810 841
810 811
811 842
811 812
812 843
812 813
813 814
813 844
814 815
814 845
815 816
815 846
816 847
816 817
817 818
817 848
818 849
818 819
819 850
819 820
820 851
820 821
821 822
821 852
822 823
822 853
823 824
823 854
824 855
824 825
825 826
825 856
826 857
826 827
827 858
827 828
828 859
828 829
829 830
829 860
830 831
830 861
831 832
831 862
832 863
832 833
833 834
833 864
834 865
834 835
835 836
835 866
836 867
836 837
837 868
838 839
838 869
839 870
839 840
840 871
840 841
841 842
841 872
842 873
842 843
843 844
843 874
844 875
844 845
845 876
845 846
846 877
846 847
847 878
847 848
848 879
848 849
849 850
849 880
850 881
850 851
851 852
851 882
852 883
852 853
853 884
853 854
854 885
854 855
855 886
855 856
856 887
856 857
857 858
857 888
858 889
858 859
859 860
859 890
860 891
860 861
861 892
861 862
862 893
862 863
863 894
863 864
864 895
864 865
865 896
865 866
866 897
866 867
867 868
867 898
868 899
869 870
869 900
870 901
870 871
871 872
871 902
872 903
872 873
873 904
873 874
874 905
874 875
875 876
875 906
876 877
876 907
877 878
877 908
878 909
878 879
879 880
879 910
880 911
880 881
881 912
881 882
882 913
882 883
883 884
883 914
884 885
884 915
885 886
885 916
886 917
886 887
887 888
887 918
888 919
888 889
889 920
889 890
890 921
890 891
891 892
891 922
892 893
892 923
893 894
893 924
894 925
894 895
895 896
895 926
896 927
896 897
897 928
897 898
898 929
898 899
899 930
900 901
900 931
901 932
901 902
902 933
902 903
903 904
903 934
904 935
904 905
905 906
905 936
906 937
906 907
907 938
907 908
908 939
908 909
909 940
909 910
910 941
910 911
911 912
911 942
912 943
912 913
913 914
913 944
914 945
914 915
915 946
915 916
916 947
916 917
917 948
917 918
918 949
918 919
919 920
919 950
920 951
920 921
921 922
921 952
922 953
922 923
923 954
923 924
924 955
924 925
925 956
925 926
926 957
926 927
927 928
927 958
928 959
928 929
929 930
929 960
930 961
931 962
931 932
932 963
932 933
933 964
933 934
934 965
934 935
935 966
935 936
936 967
936 937
937 968
937 938
938 939
938 969
939 970
939 940
940 971
940 941
941 972
941 942
942 973
942 943
943 974
943 944
944 975
944 945
945 976
945 946
946 947
946 977
947 978
947 948
948 979
948 949
949 980
949 950
950 981
950 951
951 982
951 952
952 983
952 953
953 984
953 954
954 955
954 985
955 986
955 956
956 987
956 957
957 988
957 958
958 989
958 959
959 990
959 960
960 991
960 961
961 992
962 963
963 964
964 965
965 966
966 967
967 968
968 969
969 970
970 971
971 972
972 973
973 974
974 975
975 976
976 977
977 978
978 979
979 980
980 981
981 982
982 983
983 984
984 985
985 986
986 987
987 988
988 989
989 990
990 991
991 992
